logs/drand/feas/drand-10-075-0.sol
# Objective value = 163
x0,1_4 1
x0,1_6 0
x0,1_8 0
x0,1_25 0
x0,1_33 0
x0,1_47 0
x0,1_53 0
x0,1_62 0
x0,1_68 0
x0,1_72 0
x0,2_4 0
x0,2_6 0
x0,2_8 0
x0,2_25 0
x0,2_33 0
x0,2_47 0
x0,2_53 0
x0,2_62 0
x0,2_68 0
x0,2_72 0
x0,3_4 0
x0,3_6 0
x0,3_8 0
x0,3_25 0
x0,3_33 0
x0,3_47 0
x0,3_53 0
x0,3_62 0
x0,3_68 0
x0,3_72 0
x0,4_4 0
x0,4_6 0
x0,4_8 0
x0,4_25 1
x0,4_33 0
x0,4_47 0
x0,4_53 0
x0,4_62 0
x0,4_68 0
x0,4_72 0
x0,5_4 0
x0,5_6 0
x0,5_8 0
x0,5_25 0
x0,5_33 1
x0,5_47 0
x0,5_53 0
x0,5_62 0
x0,5_68 0
x0,5_72 0
x0,6_4 0
x0,6_6 0
x0,6_8 0
x0,6_25 0
x0,6_33 0
x0,6_47 0
x0,6_53 0
x0,6_62 0
x0,6_68 0
x0,6_72 1
x1,2_4 0
x1,2_6 1
x1,2_8 0
x1,2_25 0
x1,2_33 0
x1,2_47 0
x1,2_53 0
x1,2_62 0
x1,2_68 0
x1,2_72 0
x1,3_4 0
x1,3_6 0
x1,3_8 0
x1,3_25 0
x1,3_33 0
x1,3_47 0
x1,3_53 0
x1,3_62 0
x1,3_68 0
x1,3_72 0
x1,4_4 0
x1,4_6 0
x1,4_8 0
x1,4_25 0
x1,4_33 0
x1,4_47 0
x1,4_53 0
x1,4_62 0
x1,4_68 0
x1,4_72 0
x1,5_4 0
x1,5_6 0
x1,5_8 0
x1,5_25 0
x1,5_33 0
x1,5_47 0
x1,5_53 0
x1,5_62 0
x1,5_68 0
x1,5_72 0
x1,6_4 0
x1,6_6 0
x1,6_8 0
x1,6_25 0
x1,6_33 0
x1,6_47 0
x1,6_53 0
x1,6_62 0
x1,6_68 1
x1,6_72 0
x2,3_4 0
x2,3_6 0
x2,3_8 0
x2,3_25 0
x2,3_33 0
x2,3_47 0
x2,3_53 0
x2,3_62 0
x2,3_68 0
x2,3_72 0
x2,4_4 0
x2,4_6 0
x2,4_8 0
x2,4_25 0
x2,4_33 0
x2,4_47 0
x2,4_53 0
x2,4_62 0
x2,4_68 0
x2,4_72 0
x2,5_4 0
x2,5_6 0
x2,5_8 0
x2,5_25 0
x2,5_33 0
x2,5_47 0
x2,5_53 0
x2,5_62 0
x2,5_68 0
x2,5_72 0
x2,6_4 0
x2,6_6 0
x2,6_8 0
x2,6_25 0
x2,6_33 0
x2,6_47 0
x2,6_53 0
x2,6_62 1
x2,6_68 0
x2,6_72 0
x3,4_4 0
x3,4_6 0
x3,4_8 0
x3,4_25 0
x3,4_33 0
x3,4_47 0
x3,4_53 0
x3,4_62 0
x3,4_68 0
x3,4_72 0
x3,5_4 0
x3,5_6 0
x3,5_8 0
x3,5_25 0
x3,5_33 0
x3,5_47 0
x3,5_53 0
x3,5_62 0
x3,5_68 0
x3,5_72 0
x3,6_4 0
x3,6_6 0
x3,6_8 0
x3,6_25 0
x3,6_33 0
x3,6_47 0
x3,6_53 1
x3,6_62 0
x3,6_68 0
x3,6_72 0
x4,5_4 0
x4,5_6 0
x4,5_8 1
x4,5_25 0
x4,5_33 0
x4,5_47 0
x4,5_53 0
x4,5_62 0
x4,5_68 0
x4,5_72 0
x4,6_4 0
x4,6_6 0
x4,6_8 0
x4,6_25 0
x4,6_33 0
x4,6_47 1
x4,6_53 0
x4,6_62 0
x4,6_68 0
x4,6_72 0
x5,6_4 0
x5,6_6 0
x5,6_8 0
x5,6_25 0
x5,6_33 0
x5,6_47 0
x5,6_53 0
x5,6_62 0
x5,6_68 0
x5,6_72 0
p0 0
p1 4
p2 10
p3 19
p4 25
p5 33
p6 72
